Route #1: 1 1 43 49 50 31 39 26 16 33 1 
Route #2: 1 41 23 2 30 52 13 45 48 21 1 
Route #3: 1 24 3 32 9 40 17 6 1 
Route #4: 1 22 28 20 29 27 54 19 35 8 34 1 
Route #5: 1 51 4 7 46 15 5 37 36 47 42 1 
Route #6: 1 44 18 25 10 38 11 53 12 1 
Route #7: 1 14 1 

Cost 939.186
Time 0.7206


 * Another infos *

 Iterations: 55 Time: 0.7206 sec - 0.0120 min - 0.0002 horas
0.0000 h 0.0120 min
Problem dimension: 55
